p cnf 116 953
c 117 115 120 118 116 123 122 122 

-1 2 0
-3 4 0
-5 6 0
-7 8 0
-9 10 0
-11 -4 0
-12 -6 0
-13 -8 0
-14 -10 0
-11 15 0
-12 16 0
-13 17 0
-14 2 0
11 -15 4 0
12 -16 6 0
13 -17 8 0
14 -2 10 0
3 15 -4 0
5 16 -6 0
7 17 -8 0
9 2 -10 0
12 -18 0
13 -19 0
14 -20 0
11 21 -22 0
13 23 -24 0
14 25 -26 0
11 -27 0
12 28 -29 0
13 30 -31 0
14 32 -33 0
11 -34 0
14 35 -36 0
11 -37 0
3 5 38 7 9 39 0
11 12 40 13 14 41 0
-3 -5 0
-3 -38 0
-3 -7 0
-3 -9 0
-3 -39 0
-5 -3 0
-5 -38 0
-5 -7 0
-5 -9 0
-5 -39 0
-38 -3 0
-38 -5 0
-38 -7 0
-38 -39 0
-7 -3 0
-7 -5 0
-7 -38 0
-7 -9 0
-7 -39 0
-9 -3 0
-9 -5 0
-9 -38 0
-9 -7 0
-9 -39 0
-39 -3 0
-39 -5 0
-39 -38 0
-39 -7 0
-39 -9 0
-11 -12 0
-11 -13 0
-11 -14 0
-11 -41 0
-12 -11 0
-12 -13 0
-12 -14 0
-40 -11 0
-40 -14 0
-13 -11 0
-13 -12 0
-13 -40 0
-13 -14 0
-13 -41 0
-14 -11 0
-14 -12 0
-14 -40 0
-14 -13 0
-14 -41 0
-41 -11 0
-41 -12 0
-41 -13 0
-41 -14 0
-42 -11 0
-43 -14 0
-3 -11 0
-5 -12 0
-7 -13 0
-9 -14 0
-39 -41 0
-44 4 0
-45 6 0
-23 -30 0
-25 -35 0
-30 -23 0
-35 -25 0
-21 -15 0
-23 -17 0
-25 -2 0
-28 -16 0
-30 -17 0
-32 -2 0
-35 -2 0
-18 -6 0
-19 -8 0
-20 -10 0
-22 -4 0
-27 -4 0
-29 -6 0
-34 -4 0
-37 -4 0
-46 -6 0
-47 -48 49 0
-50 -51 52 0
-50 -48 53 0
-50 -54 55 0
-50 -56 57 0
-50 -58 -53 0
-50 -59 -55 0
-50 -60 -57 0
-58 61 0
-48 -61 0
-50 -62 0
-50 -63 0
-50 -58 64 0
-50 -59 65 0
-50 -60 66 0
-50 67 0
-68 67 0
68 -67 2 0
50 -64 53 0
50 -65 55 0
50 -66 57 0
50 -52 0
50 64 -53 0
50 65 -55 0
50 66 -57 0
48 -49 0
48 64 -53 0
47 69 70 50 0
-47 -50 0
-69 -50 0
-70 -50 0
-50 -47 0
-50 -69 0
-50 -70 0
-50 -1 0
-50 -68 0
-38 71 0
-40 -71 0
-43 -5 52 0
-43 -38 53 0
-43 -7 55 0
-43 -39 57 0
-72 61 0
-40 61 0
40 -61 71 0
38 61 -71 0
43 52 -46 0
43 53 -73 0
43 55 -74 0
40 -75 0
40 49 -76 0
40 77 -78 0
12 52 -46 0
40 53 -73 0
13 55 -74 0
41 57 -79 0
-38 -9 0
-11 -40 0
-12 -40 0
-12 -41 0
-40 -12 0
-40 -13 0
-40 -41 0
-41 -40 0
-38 -40 0
-80 71 0
-81 71 0
81 -71 0
-64 -65 0
-64 -66 0
-65 -64 0
-65 -66 0
-66 -64 0
-66 -65 0
-49 -28 0
-25 -52 0
-28 -49 0
-32 -53 0
-35 -55 0
-52 -25 0
-53 -32 0
-55 -35 0
-49 -77 0
-49 -53 0
-23 -55 0
-28 -52 0
-30 -55 0
-82 -52 0
-77 -53 0
-52 -28 0
-53 -49 0
-53 -77 0
-55 -23 0
-55 -30 0
-52 -53 0
-52 -55 0
-52 -57 0
-53 -52 0
-53 -55 0
-53 -57 0
-55 -52 0
-55 -53 0
-55 -57 0
-57 -52 0
-57 -53 0
-57 -55 0
-49 -61 0
-77 -61 0
-52 -16 0
-53 -61 0
-55 -17 0
-75 -71 0
-76 -71 0
-78 -71 0
-73 -71 0
-47 -54 23 0
-47 -68 25 0
-47 -56 83 0
-70 -68 35 0
-70 -56 84 0
-47 -62 -21 0
-70 -60 -84 0
-62 15 0
-63 16 0
-59 17 0
-51 -16 0
-54 -17 0
-68 -2 0
-47 -58 0
-47 -59 0
-47 -1 0
-47 -60 0
-70 -62 0
-70 -63 0
-70 -58 0
-70 -1 0
-47 85 0
-70 86 0
-51 85 0
-48 87 0
-54 86 0
51 -85 16 0
48 -87 61 0
54 -86 17 0
47 21 0
70 84 0
62 -15 0
63 85 -16 0
58 87 -61 0
59 86 -17 0
1 67 -2 0
47 -49 0
47 -23 0
47 -25 0
47 -83 0
70 -82 0
70 -77 0
70 -35 0
54 -23 0
68 -25 0
56 -83 0
51 88 -28 0
54 -30 0
56 89 -90 0
51 -82 0
48 -77 0
68 -35 0
51 -52 0
54 65 -55 0
56 66 -57 0
62 63 58 59 1 60 0
51 48 54 68 56 0
-47 -70 0
-70 -47 0
-62 -63 0
-62 -58 0
-62 -59 0
-62 -1 0
-62 -60 0
-63 -62 0
-63 -58 0
-63 -59 0
-63 -1 0
-63 -60 0
-58 -62 0
-58 -63 0
-58 -59 0
-58 -1 0
-58 -60 0
-59 -62 0
-59 -63 0
-59 -58 0
-59 -1 0
-59 -60 0
-1 -62 0
-1 -63 0
-1 -58 0
-1 -59 0
-1 -60 0
-60 -62 0
-60 -63 0
-60 -58 0
-60 -59 0
-60 -1 0
-51 -48 0
-51 -54 0
-51 -68 0
-51 -56 0
-48 -51 0
-48 -54 0
-48 -68 0
-48 -56 0
-54 -51 0
-54 -48 0
-54 -68 0
-54 -56 0
-68 -51 0
-68 -48 0
-68 -54 0
-68 -56 0
-56 -51 0
-56 -48 0
-56 -54 0
-56 -68 0
-47 -63 0
-70 -59 0
-47 -51 0
-70 -54 0
-63 -51 0
-58 -48 0
-59 -54 0
-1 -68 0
-60 -56 0
-88 -85 0
-65 -86 0
-91 -92 93 0
-91 -94 89 0
-95 -96 64 0
-95 -94 66 0
-91 -97 -88 0
-95 -98 -65 0
-97 85 0
-99 87 0
-98 86 0
-100 67 0
-96 -87 0
-92 -67 0
-91 -98 0
-91 -100 0
-91 -101 0
-95 -97 0
-95 -99 0
-95 -101 0
96 87 0
92 67 0
91 88 0
95 65 0
97 -85 0
98 -86 0
91 -93 0
91 -89 0
95 -64 0
95 -66 0
92 -93 0
94 -89 0
96 -64 0
94 -66 0
91 95 0
97 99 98 100 101 0
96 92 94 0
-91 -95 0
-95 -91 0
-97 -99 0
-97 -98 0
-97 -100 0
-97 -101 0
-99 -97 0
-99 -98 0
-99 -100 0
-99 -101 0
-98 -97 0
-98 -99 0
-98 -100 0
-98 -101 0
-100 -97 0
-100 -99 0
-100 -98 0
-100 -101 0
-101 -97 0
-101 -99 0
-101 -98 0
-101 -100 0
-96 -92 0
-96 -94 0
-92 -96 0
-92 -94 0
-94 -96 0
-94 -92 0
-91 -99 0
-95 -100 0
-91 -96 0
-95 -92 0
-99 -96 0
-100 -92 0
-101 -94 0
-69 -51 28 0
-69 -54 30 0
-69 -68 32 0
-69 -56 90 0
-69 -63 -28 0
-69 -1 -32 0
-69 -60 -90 0
-69 -62 0
-69 -63 88 0
-69 -59 0
-69 -1 93 0
-69 -60 89 0
-69 87 0
69 -88 28 0
69 -93 32 0
69 -89 90 0
69 88 -28 0
69 -30 0
69 93 -32 0
69 89 -90 0
68 93 -32 0
-47 -69 0
-69 -47 0
-69 -70 0
-70 -69 0
-69 -58 0
-69 -48 0
-72 -9 32 0
-93 -64 0
-64 -93 0
-88 -93 0
-88 -89 0
-93 -88 0
-93 -89 0
-89 -88 0
-89 -93 0
-93 -67 0
-64 -87 0
-25 -32 0
-32 -25 0
-32 -35 0
-35 -32 0
-28 -32 0
-30 -32 0
-32 -28 0
-32 -30 0
-32 -90 0
-90 -32 0
-70 -51 82 0
-70 -48 77 0
-102 -11 34 0
-102 -12 103 0
-102 -40 78 0
-102 -14 36 0
-102 -41 104 0
-102 -5 -103 0
-102 -38 -78 0
-102 -9 -36 0
-102 -39 -104 0
-102 -3 0
-102 -5 82 0
-102 -38 77 0
-102 -9 35 0
-102 -39 84 0
-102 17 0
102 -82 103 0
102 -77 78 0
102 -35 36 0
102 -84 104 0
102 -34 0
102 82 -103 0
102 77 -78 0
102 35 -36 0
102 84 -104 0
12 82 -103 0
41 84 -104 0
-42 -102 0
-102 -42 0
-102 -43 0
-43 -102 0
-102 -7 0
-102 -13 0
-105 -81 0
-105 -106 0
-105 -107 34 0
-105 -108 36 0
-105 -109 104 0
-105 8 0
105 -34 0
105 -78 0
105 -36 0
105 -104 0
105 103 0
45 103 0
-105 -80 0
-105 -110 0
-23 -82 0
-30 -77 0
-82 -23 0
-77 -30 0
-28 -82 0
-82 -28 0
-77 -49 0
-52 -82 0
-82 -77 0
-82 -35 0
-82 -84 0
-77 -82 0
-77 -35 0
-77 -84 0
-35 -82 0
-35 -77 0
-35 -84 0
-84 -82 0
-84 -77 0
-84 -35 0
-82 -16 0
-19 -34 0
-24 -103 0
-34 -19 0
-103 -24 0
-36 -74 0
-74 -36 0
-18 -103 0
-75 -78 0
-20 -36 0
-76 -78 0
-27 -34 0
-29 -103 0
-33 -36 0
-34 -27 0
-34 -37 0
-103 -18 0
-103 -29 0
-103 -46 0
-78 -75 0
-78 -76 0
-36 -20 0
-36 -26 0
-36 -33 0
-37 -34 0
-46 -103 0
-34 -103 0
-34 -78 0
-34 -36 0
-34 -104 0
-103 -34 0
-103 -78 0
-103 -36 0
-103 -104 0
-78 -34 0
-78 -103 0
-78 -36 0
-78 -104 0
-36 -34 0
-36 -103 0
-36 -78 0
-36 -104 0
-104 -34 0
-104 -103 0
-104 -78 0
-104 -36 0
-103 -6 0
-36 -10 0
-43 -11 37 0
-43 -12 46 0
-43 -40 73 0
-43 -13 74 0
-43 -41 79 0
-43 -5 -46 0
-43 -38 -73 0
-43 -7 -74 0
-43 -39 -79 0
-43 -3 0
-43 2 0
43 -52 46 0
43 -53 73 0
43 -55 74 0
43 -57 79 0
43 -37 0
43 57 -79 0
-43 -9 0
-44 -45 0
-44 -81 0
-111 -81 0
-80 -45 0
-112 -45 0
-112 -106 0
-44 -109 0
-111 -109 0
-80 -109 0
-112 -107 37 0
-112 -110 74 0
-112 -109 79 0
-111 6 0
-112 10 0
45 -6 0
44 -18 0
44 -75 0
44 -19 0
44 -20 0
111 -22 0
111 -76 0
111 -24 0
111 -26 0
80 -27 0
80 -29 0
80 -31 0
80 -33 0
112 -37 0
112 -46 0
112 -74 0
112 -79 0
44 113 0
112 73 0
81 73 0
44 111 80 105 112 0
45 81 106 0
-44 -111 0
-44 -80 0
-44 -105 0
-44 -112 0
-111 -44 0
-111 -80 0
-111 -105 0
-111 -112 0
-80 -44 0
-80 -111 0
-80 -105 0
-80 -112 0
-105 -44 0
-105 -111 0
-105 -112 0
-112 -44 0
-112 -111 0
-112 -80 0
-112 -105 0
-45 -81 0
-45 -106 0
-81 -45 0
-81 -106 0
-106 -45 0
-106 -81 0
-44 -107 0
-112 -108 0
-111 -45 0
-80 -81 0
-20 -37 0
-33 -73 0
-73 -33 0
-18 -46 0
-75 -73 0
-19 -74 0
-76 -73 0
-29 -46 0
-31 -74 0
-78 -73 0
-37 -27 0
-46 -18 0
-46 -29 0
-73 -75 0
-73 -76 0
-73 -78 0
-74 -19 0
-74 -24 0
-74 -31 0
-37 -46 0
-37 -73 0
-37 -74 0
-37 -79 0
-46 -37 0
-46 -73 0
-46 -74 0
-46 -79 0
-73 -37 0
-73 -46 0
-73 -74 0
-73 -79 0
-74 -37 0
-74 -46 0
-74 -73 0
-74 -79 0
-79 -37 0
-79 -46 0
-79 -73 0
-79 -74 0
-74 -8 0
-42 -12 18 0
-42 -40 75 0
-42 -13 19 0
-42 -14 20 0
-42 -41 113 0
-72 -11 27 0
-72 -12 29 0
-72 -13 31 0
-72 -14 33 0
-72 -41 114 0
-42 -39 -113 0
-72 -5 -29 0
-72 -7 -31 0
-72 -9 -33 0
-72 -39 -114 0
-42 -5 0
-42 -38 0
-42 -7 0
-42 -9 0
-72 -3 0
-72 -5 28 0
-72 -7 30 0
-72 -39 90 0
-42 15 0
42 113 0
72 -28 29 0
72 -30 31 0
72 -32 33 0
72 -90 114 0
42 -18 0
42 -75 0
42 -19 0
42 -20 0
72 -27 0
72 28 -29 0
72 30 -31 0
72 32 -33 0
72 90 -114 0
41 90 -114 0
42 115 72 102 43 0
-42 -72 0
-42 -43 0
-115 -72 0
-72 -42 0
-72 -115 0
-72 -102 0
-72 -43 0
-102 -72 0
-43 -42 0
-43 -72 0
-42 -3 0
-72 -38 0
-72 -40 0
-44 -110 19 0
-44 -108 20 0
-80 -107 27 0
-80 -110 31 0
-80 -108 33 0
80 114 0
106 113 0
106 114 0
-109 -106 0
-28 -30 0
-28 -90 0
-30 -28 0
-30 -90 0
-90 -28 0
-90 -30 0
-75 -27 0
-27 -75 0
-31 -78 0
-78 -31 0
-37 -20 0
-18 -29 0
-19 -31 0
-20 -33 0
-27 -37 0
-29 -18 0
-31 -19 0
-33 -20 0
-18 -75 0
-18 -19 0
-18 -20 0
-18 -113 0
-75 -18 0
-75 -19 0
-75 -20 0
-75 -113 0
-19 -18 0
-19 -75 0
-19 -20 0
-19 -113 0
-20 -18 0
-20 -75 0
-20 -19 0
-20 -113 0
-113 -18 0
-113 -75 0
-113 -19 0
-113 -20 0
-27 -29 0
-27 -31 0
-27 -33 0
-27 -114 0
-29 -27 0
-29 -31 0
-29 -33 0
-29 -114 0
-31 -27 0
-31 -29 0
-31 -33 0
-31 -114 0
-33 -27 0
-33 -29 0
-33 -31 0
-33 -114 0
-114 -27 0
-114 -29 0
-114 -31 0
-114 -33 0
-31 -8 0
-33 -10 0
-115 -11 22 0
-115 -40 76 0
-115 -13 24 0
-115 -14 26 0
-115 -41 116 0
-115 -3 -22 0
-115 -38 -76 0
-115 -7 -24 0
-115 -9 -26 0
-115 -39 -116 0
-115 -3 21 0
-115 -38 49 0
-115 -7 23 0
-115 -9 25 0
-115 -39 83 0
-115 16 0
115 -21 22 0
115 -49 76 0
115 -23 24 0
115 -25 26 0
115 -83 116 0
115 21 -22 0
115 49 -76 0
115 23 -24 0
115 25 -26 0
115 83 -116 0
41 83 -116 0
-42 -115 0
-115 -42 0
-115 -102 0
-115 -43 0
-102 -115 0
-43 -115 0
-115 -5 0
-115 -12 0
-111 -107 22 0
-111 -110 24 0
-111 -108 26 0
107 4 0
110 8 0
108 10 0
111 116 0
106 116 0
107 110 108 109 0
-107 -110 0
-107 -108 0
-107 -109 0
-110 -107 0
-110 -108 0
-110 -109 0
-108 -107 0
-108 -110 0
-108 -109 0
-109 -107 0
-109 -110 0
-109 -108 0
-21 -49 0
-21 -23 0
-21 -25 0
-21 -83 0
-49 -21 0
-49 -23 0
-49 -25 0
-49 -83 0
-23 -21 0
-23 -49 0
-23 -25 0
-23 -83 0
-25 -21 0
-25 -49 0
-25 -23 0
-25 -83 0
-83 -21 0
-83 -49 0
-83 -23 0
-83 -25 0
-18 -22 0
-22 -18 0
-76 -29 0
-26 -46 0
-29 -76 0
-46 -26 0
-75 -76 0
-19 -24 0
-20 -26 0
-22 -27 0
-22 -34 0
-22 -37 0
-76 -75 0
-24 -19 0
-24 -31 0
-24 -74 0
-26 -20 0
-26 -33 0
-26 -36 0
-27 -22 0
-31 -24 0
-33 -26 0
-34 -22 0
-37 -22 0
-22 -76 0
-22 -24 0
-22 -26 0
-22 -116 0
-76 -22 0
-76 -24 0
-76 -26 0
-76 -116 0
-24 -22 0
-24 -76 0
-24 -26 0
-24 -116 0
-26 -22 0
-26 -76 0
-26 -24 0
-26 -116 0
-116 -22 0
-116 -76 0
-116 -24 0
-116 -26 0
-24 -8 0
-26 -10 0
